(declare-fun i27.i286.i_4_60 () (_ BitVec 1))
(declare-fun tobool.not.i5.i279.i_4_58 () (_ BitVec 1))
(declare-fun tobool.not.i.i270.i_4_54 () (_ BitVec 1))
(declare-fun and6.i.i.i2.i276.i_4_56 () (_ BitVec 64))
(declare-fun and.i259.i_4_50 () (_ BitVec 64))
(declare-fun and6.i.i.i.i267.i_4_52 () (_ BitVec 64))
(declare-fun src_reg1.sroa.13.0.copyload_4_39 () (_ BitVec 64))
(declare-fun neg.i258.i_4_49 () (_ BitVec 64))
(declare-fun or3.i257.i_4_47 () (_ BitVec 64))
(declare-fun or.i256.i_4_46 () (_ BitVec 64))
(declare-fun i95.i_4_45 () (_ BitVec 64))
(declare-fun src_reg1.sroa.3.0.copyload_4_38 () (_ BitVec 64))
(declare-fun i93.i_4_44 () (_ BitVec 64))
(declare-fun dst_reg_4_3 () (_ BitVec 64))
(declare-fun dst_reg_4_2 () (_ BitVec 64))
(declare-fun tobool.not.i1.i.i_4_43 () (_ BitVec 1))
(declare-fun src_reg1.sroa.57.0.copyload_4_41 () (_ BitVec 32))
(declare-fun src_reg_4_28 () (_ BitVec 32))
(declare-fun src_reg1.sroa.34.0.copyload_4_40 () (_ BitVec 64))
(declare-fun src_reg_4_24 () (_ BitVec 64))
(declare-fun src_reg_4_21 () (_ BitVec 64))
(declare-fun src_reg_4_20 () (_ BitVec 64))
(declare-fun src_reg_4_35 () (_ BitVec 8))
(declare-fun src_reg_4_34 () (_ BitVec 32))
(declare-fun src_reg_4_33 () (_ BitVec 32))
(declare-fun src_reg_4_32 () (_ BitVec 32))
(declare-fun src_reg_4_31 () (_ BitVec 32))
(declare-fun src_reg_4_30 () (_ BitVec 32))
(declare-fun src_reg_4_29 () (_ BitVec 32))
(declare-fun src_reg_4_27 () (_ BitVec 32))
(declare-fun src_reg_4_26 () (_ BitVec 32))
(declare-fun src_reg_4_25 () (_ BitVec 64))
(declare-fun src_reg_4_23 () (_ BitVec 64))
(declare-fun src_reg_4_22 () (_ BitVec 64))
(declare-fun src_reg_4_19 () (_ BitVec 32))
(declare-fun src_reg_4_18 () (_ BitVec 32))
(declare-fun dst_reg_4_17 () (_ BitVec 8))
(declare-fun dst_reg_4_16 () (_ BitVec 32))
(declare-fun dst_reg_4_15 () (_ BitVec 32))
(declare-fun dst_reg_4_14 () (_ BitVec 32))
(declare-fun dst_reg_4_13 () (_ BitVec 32))
(declare-fun dst_reg_4_12 () (_ BitVec 32))
(declare-fun dst_reg_4_11 () (_ BitVec 32))
(declare-fun dst_reg_4_10 () (_ BitVec 32))
(declare-fun dst_reg_4_9 () (_ BitVec 32))
(declare-fun dst_reg_4_8 () (_ BitVec 32))
(declare-fun dst_reg_4_7 () (_ BitVec 64))
(declare-fun dst_reg_4_6 () (_ BitVec 64))
(declare-fun dst_reg_4_5 () (_ BitVec 64))
(declare-fun dst_reg_4_4 () (_ BitVec 64))
(declare-fun dst_reg_4_1 () (_ BitVec 32))
(declare-fun dst_reg_4_0 () (_ BitVec 32))
(declare-fun src_reg_4_237 () (_ BitVec 8))
(declare-fun src_reg_4_201 () (_ BitVec 8))
(declare-fun src_reg_4_236 () (_ BitVec 32))
(declare-fun src_reg_4_200 () (_ BitVec 32))
(declare-fun src_reg_4_235 () (_ BitVec 32))
(declare-fun src_reg_4_199 () (_ BitVec 32))
(declare-fun src_reg_4_234 () (_ BitVec 32))
(declare-fun src_reg_4_198 () (_ BitVec 32))
(declare-fun src_reg_4_233 () (_ BitVec 32))
(declare-fun src_reg_4_197 () (_ BitVec 32))
(declare-fun src_reg_4_232 () (_ BitVec 32))
(declare-fun src_reg_4_196 () (_ BitVec 32))
(declare-fun src_reg_4_231 () (_ BitVec 32))
(declare-fun src_reg_4_195 () (_ BitVec 32))
(declare-fun src_reg_4_230 () (_ BitVec 32))
(declare-fun src_reg_4_194 () (_ BitVec 32))
(declare-fun src_reg_4_229 () (_ BitVec 32))
(declare-fun src_reg_4_193 () (_ BitVec 32))
(declare-fun src_reg_4_228 () (_ BitVec 32))
(declare-fun src_reg_4_192 () (_ BitVec 32))
(declare-fun src_reg_4_227 () (_ BitVec 64))
(declare-fun src_reg_4_191 () (_ BitVec 64))
(declare-fun src_reg_4_226 () (_ BitVec 64))
(declare-fun src_reg_4_190 () (_ BitVec 64))
(declare-fun src_reg_4_225 () (_ BitVec 64))
(declare-fun src_reg_4_189 () (_ BitVec 64))
(declare-fun src_reg_4_224 () (_ BitVec 64))
(declare-fun src_reg_4_188 () (_ BitVec 64))
(declare-fun src_reg_4_223 () (_ BitVec 64))
(declare-fun src_reg_4_187 () (_ BitVec 64))
(declare-fun src_reg_4_222 () (_ BitVec 64))
(declare-fun src_reg_4_186 () (_ BitVec 64))
(declare-fun src_reg_4_221 () (_ BitVec 32))
(declare-fun src_reg_4_185 () (_ BitVec 32))
(declare-fun src_reg_4_220 () (_ BitVec 32))
(declare-fun src_reg_4_184 () (_ BitVec 32))
(declare-fun dst_reg_4_219 () (_ BitVec 8))
(declare-fun dst_reg_4_183 () (_ BitVec 8))
(declare-fun dst_reg_4_218 () (_ BitVec 32))
(declare-fun dst_reg_4_182 () (_ BitVec 32))
(declare-fun dst_reg_4_217 () (_ BitVec 32))
(declare-fun dst_reg_4_181 () (_ BitVec 32))
(declare-fun dst_reg_4_216 () (_ BitVec 32))
(declare-fun dst_reg_4_180 () (_ BitVec 32))
(declare-fun dst_reg_4_215 () (_ BitVec 32))
(declare-fun dst_reg_4_179 () (_ BitVec 32))
(declare-fun dst_reg_4_214 () (_ BitVec 32))
(declare-fun dst_reg_4_178 () (_ BitVec 32))
(declare-fun dst_reg_4_213 () (_ BitVec 32))
(declare-fun dst_reg_4_177 () (_ BitVec 32))
(declare-fun dst_reg_4_212 () (_ BitVec 32))
(declare-fun dst_reg_4_176 () (_ BitVec 32))
(declare-fun dst_reg_4_211 () (_ BitVec 32))
(declare-fun dst_reg_4_175 () (_ BitVec 32))
(declare-fun dst_reg_4_210 () (_ BitVec 32))
(declare-fun dst_reg_4_174 () (_ BitVec 32))
(declare-fun dst_reg_4_209 () (_ BitVec 64))
(declare-fun dst_reg_4_173 () (_ BitVec 64))
(declare-fun dst_reg_4_208 () (_ BitVec 64))
(declare-fun dst_reg_4_172 () (_ BitVec 64))
(declare-fun dst_reg_4_207 () (_ BitVec 64))
(declare-fun dst_reg_4_171 () (_ BitVec 64))
(declare-fun dst_reg_4_206 () (_ BitVec 64))
(declare-fun dst_reg_4_170 () (_ BitVec 64))
(declare-fun dst_reg_4_205 () (_ BitVec 64))
(declare-fun dst_reg_4_169 () (_ BitVec 64))
(declare-fun dst_reg_4_204 () (_ BitVec 64))
(declare-fun dst_reg_4_168 () (_ BitVec 64))
(declare-fun dst_reg_4_203 () (_ BitVec 32))
(declare-fun dst_reg_4_167 () (_ BitVec 32))
(declare-fun dst_reg_4_202 () (_ BitVec 32))
(declare-fun dst_reg_4_166 () (_ BitVec 32))
(declare-fun dst_reg_4_89 () (_ BitVec 8))
(declare-fun dst_reg_4_88 () (_ BitVec 32))
(declare-fun dst_reg_4_87 () (_ BitVec 32))
(declare-fun dst_reg_4_86 () (_ BitVec 32))
(declare-fun dst_reg_4_85 () (_ BitVec 32))
(declare-fun dst_reg_4_84 () (_ BitVec 32))
(declare-fun cond36.i.i.i394.i_4_151 () (_ BitVec 32))
(declare-fun cond24.i.i.i388.i_4_146 () (_ BitVec 32))
(declare-fun cond14.i.i.i383.i_4_142 () (_ BitVec 32))
(declare-fun cond.i.i.i376.i_4_135 () (_ BitVec 32))
(declare-fun cond35.i.i.i419.i_4_165 () (_ BitVec 64))
(declare-fun cond23.i.i.i414.i_4_163 () (_ BitVec 64))
(declare-fun cond14.i8.i.i410.i_4_161 () (_ BitVec 64))
(declare-fun cond.i7.i.i404.i_4_156 () (_ BitVec 64))
(declare-fun dst_reg_4_75 () (_ BitVec 64))
(declare-fun dst_reg_4_74 () (_ BitVec 64))
(declare-fun dst_reg_4_73 () (_ BitVec 32))
(declare-fun dst_reg_4_72 () (_ BitVec 32))
(declare-fun src_reg_4_107 () (_ BitVec 8))
(declare-fun src_reg_4_106 () (_ BitVec 32))
(declare-fun src_reg_4_105 () (_ BitVec 32))
(declare-fun src_reg_4_104 () (_ BitVec 32))
(declare-fun src_reg_4_103 () (_ BitVec 32))
(declare-fun src_reg_4_102 () (_ BitVec 32))
(declare-fun src_reg_4_101 () (_ BitVec 32))
(declare-fun src_reg_4_100 () (_ BitVec 32))
(declare-fun src_reg_4_99 () (_ BitVec 32))
(declare-fun src_reg_4_98 () (_ BitVec 32))
(declare-fun src_reg_4_97 () (_ BitVec 64))
(declare-fun src_reg_4_96 () (_ BitVec 64))
(declare-fun src_reg_4_95 () (_ BitVec 64))
(declare-fun src_reg_4_94 () (_ BitVec 64))
(declare-fun src_reg_4_93 () (_ BitVec 64))
(declare-fun src_reg_4_92 () (_ BitVec 64))
(declare-fun src_reg_4_91 () (_ BitVec 32))
(declare-fun src_reg_4_90 () (_ BitVec 32))
(declare-fun cmp12.not.i322.i_4_69 () (_ BitVec 1))
(declare-fun i25.i335.i_4_112 () (_ BitVec 1))
(declare-fun conv.i.i.i348.i_4_117 () (_ BitVec 32))
(declare-fun i26.i337.i_4_113 () (_ BitVec 64))
(declare-fun shr5.i.i.i.i.i.i296.i_4_63 () (_ BitVec 64))
(declare-fun conv.i.i287.i_4_61 () (_ BitVec 32))
(declare-fun conv.i320.i_4_68 () (_ BitVec 32))
(declare-fun cond.i318.i_4_66 () (_ BitVec 32))
(declare-fun or.i319.i_4_67 () (_ BitVec 64))
(declare-fun i29.i316.i_4_64 () (_ BitVec 32))
(declare-fun cmp.i317.i_4_65 () (_ BitVec 1))
(declare-fun dst_reg_4_83 () (_ BitVec 32))
(declare-fun dst_reg_4_82 () (_ BitVec 32))
(declare-fun dst_reg_4_81 () (_ BitVec 32))
(declare-fun dst_reg_4_80 () (_ BitVec 32))
(declare-fun dst_reg_4_79 () (_ BitVec 64))
(declare-fun dst_reg_4_78 () (_ BitVec 64))
(declare-fun dst_reg_4_77 () (_ BitVec 64))
(declare-fun dst_reg_4_76 () (_ BitVec 64))
(declare-fun tobool.not.i1.i332.i_4_110 () (_ BitVec 1))
(declare-fun i23.i331.i_4_108 () (_ BitVec 64))
(declare-fun and.i.i.i.i.i366.i30_4_148 () (_ BitVec 64))
(declare-fun or.i358.i_4_122 () (_ BitVec 64))
(declare-fun cmp31.i11.i.i418.i_4_164 () (_ BitVec 1))
(declare-fun i22.i.i.i363.i_4_128 () (_ BitVec 64))
(declare-fun cond.i356.i_4_120 () (_ BitVec 64))
(declare-fun cmp19.i9.i.i413.i_4_162 () (_ BitVec 1))
(declare-fun or8.i.i.i408.i_4_159 () (_ BitVec 64))
(declare-fun .or.i.i_4_127 () (_ BitVec 64))
(declare-fun cmp10.i.i.i409.i_4_160 () (_ BitVec 1))
(declare-fun and7.i.i.i407.i_4_158 () (_ BitVec 64))
(declare-fun or.i5.i.i402.i_4_154 () (_ BitVec 64))
(declare-fun .cond.i361.i_4_125 () (_ BitVec 64))
(declare-fun cmp.i6.i.i403.i_4_155 () (_ BitVec 1))
(declare-fun and.i4.i.i401.i_4_153 () (_ BitVec 64))
(declare-fun conv29.i.i.i392.i_4_149 () (_ BitVec 32))
(declare-fun i30.i.i.i390.i_4_147 () (_ BitVec 32))
(declare-fun cmp31.i.i.i393.i_4_150 () (_ BitVec 1))
(declare-fun conv17.i.i.i386.i_4_144 () (_ BitVec 32))
(declare-fun i29.i.i.i385.i_4_143 () (_ BitVec 32))
(declare-fun cmp19.i.i.i387.i_4_145 () (_ BitVec 1))
(declare-fun conv7.i.i.i381.i_4_140 () (_ BitVec 32))
(declare-fun i28.i.i.i378.i_4_136 () (_ BitVec 32))
(declare-fun cmp9.i.i.i382.i_4_141 () (_ BitVec 1))
(declare-fun or6.i.i.i380.i_4_139 () (_ BitVec 64))
(declare-fun and5.i.i.i379.i_4_138 () (_ BitVec 64))
(declare-fun conv.i.i3.i374.i_4_133 () (_ BitVec 32))
(declare-fun i27.i.i.i371.i_4_129 () (_ BitVec 32))
(declare-fun cmp.i.i.i375.i_4_134 () (_ BitVec 1))
(declare-fun or.i.i.i373.i_4_132 () (_ BitVec 64))
(declare-fun and.i.i.i372.i_4_131 () (_ BitVec 64))
(declare-fun cmp13.not.i360.i_4_123 () (_ BitVec 1))
(declare-fun i28.i357.i_4_121 () (_ BitVec 64))
(declare-fun i27.i354.i_4_118 () (_ BitVec 64))
(declare-fun cmp.i355.i_4_119 () (_ BitVec 1))
(assert (let ((a!1 (or (and (= cmp12.not.i322.i_4_69 #b1) (= i27.i286.i_4_60 #b0))
               (and (= cmp12.not.i322.i_4_69 #b0) (= i27.i286.i_4_60 #b0))
               (= i27.i286.i_4_60 #b1)))
      (a!4 (and (= dst_reg_4_75 i23.i331.i_4_108)
                (ite (= i23.i331.i_4_108 #x0000000000000000)
                     (= tobool.not.i1.i332.i_4_110 #b1)
                     (= tobool.not.i1.i332.i_4_110 #b0))
                (ite (= tobool.not.i1.i.i_4_43 #b1)
                     (= i25.i335.i_4_112 tobool.not.i1.i332.i_4_110)
                     (= i25.i335.i_4_112 #b0))
                (=> (= i27.i286.i_4_60 #b1)
                    (and (= #x00000001 src_reg_4_90)
                         (= src_reg_4_19 src_reg_4_91)
                         (= src_reg_4_20 src_reg_4_92)
                         (= src_reg_4_21 src_reg_4_93)
                         (= src_reg_4_22 src_reg_4_94)
                         (= src_reg_4_23 src_reg_4_95)
                         (= src_reg_4_24 src_reg_4_96)
                         (= src_reg_4_25 src_reg_4_97)
                         (= src_reg_4_26 src_reg_4_98)
                         (= src_reg_4_27 src_reg_4_99)
                         (= src_reg_4_28 src_reg_4_100)
                         (= src_reg_4_29 src_reg_4_101)
                         (= src_reg_4_30 src_reg_4_102)
                         (= src_reg_4_31 src_reg_4_103)
                         (= src_reg_4_32 src_reg_4_104)
                         (= src_reg_4_33 src_reg_4_105)
                         (= src_reg_4_34 src_reg_4_106)
                         (= src_reg_4_35 src_reg_4_107)
                         (= #x00000001 dst_reg_4_72)
                         (= dst_reg_4_1 dst_reg_4_73)
                         (= or.i256.i_4_46 dst_reg_4_74)
                         (= shr5.i.i.i.i.i.i296.i_4_63 dst_reg_4_75)
                         (= dst_reg_4_4 dst_reg_4_76)
                         (= dst_reg_4_5 dst_reg_4_77)
                         (= dst_reg_4_6 dst_reg_4_78)
                         (= dst_reg_4_7 dst_reg_4_79)
                         (= conv.i.i287.i_4_61 dst_reg_4_80)
                         (= conv.i.i287.i_4_61 dst_reg_4_81)
                         (= conv.i.i287.i_4_61 dst_reg_4_82)
                         (= conv.i.i287.i_4_61 dst_reg_4_83)
                         (= dst_reg_4_12 dst_reg_4_84)
                         (= dst_reg_4_13 dst_reg_4_85)
                         (= dst_reg_4_14 dst_reg_4_86)
                         (= dst_reg_4_15 dst_reg_4_87)
                         (= dst_reg_4_16 dst_reg_4_88)
                         (= dst_reg_4_17 dst_reg_4_89)))
                (=> (and (= cmp12.not.i322.i_4_69 #b1) (= i27.i286.i_4_60 #b0))
                    (and (= #x00000001 src_reg_4_90)
                         (= src_reg_4_19 src_reg_4_91)
                         (= src_reg_4_20 src_reg_4_92)
                         (= src_reg_4_21 src_reg_4_93)
                         (= src_reg_4_22 src_reg_4_94)
                         (= src_reg_4_23 src_reg_4_95)
                         (= src_reg_4_24 src_reg_4_96)
                         (= src_reg_4_25 src_reg_4_97)
                         (= src_reg_4_26 src_reg_4_98)
                         (= src_reg_4_27 src_reg_4_99)
                         (= src_reg_4_28 src_reg_4_100)
                         (= src_reg_4_29 src_reg_4_101)
                         (= src_reg_4_30 src_reg_4_102)
                         (= src_reg_4_31 src_reg_4_103)
                         (= src_reg_4_32 src_reg_4_104)
                         (= src_reg_4_33 src_reg_4_105)
                         (= src_reg_4_34 src_reg_4_106)
                         (= src_reg_4_35 src_reg_4_107)
                         (= #x00000001 dst_reg_4_72)
                         (= dst_reg_4_1 dst_reg_4_73)
                         (= or.i256.i_4_46 dst_reg_4_74)
                         (= and.i259.i_4_50 dst_reg_4_75)
                         (= dst_reg_4_4 dst_reg_4_76)
                         (= dst_reg_4_5 dst_reg_4_77)
                         (= dst_reg_4_6 dst_reg_4_78)
                         (= dst_reg_4_7 dst_reg_4_79)
                         (= #x80000000 dst_reg_4_80)
                         (= #x7fffffff dst_reg_4_81)
                         (= cond.i318.i_4_66 dst_reg_4_82)
                         (= conv.i320.i_4_68 dst_reg_4_83)
                         (= dst_reg_4_12 dst_reg_4_84)
                         (= dst_reg_4_13 dst_reg_4_85)
                         (= dst_reg_4_14 dst_reg_4_86)
                         (= dst_reg_4_15 dst_reg_4_87)
                         (= dst_reg_4_16 dst_reg_4_88)
                         (= dst_reg_4_17 dst_reg_4_89)))
                (=> (and (= cmp12.not.i322.i_4_69 #b0) (= i27.i286.i_4_60 #b0))
                    (and (= #x00000001 src_reg_4_90)
                         (= src_reg_4_19 src_reg_4_91)
                         (= src_reg_4_20 src_reg_4_92)
                         (= src_reg_4_21 src_reg_4_93)
                         (= src_reg_4_22 src_reg_4_94)
                         (= src_reg_4_23 src_reg_4_95)
                         (= src_reg_4_24 src_reg_4_96)
                         (= src_reg_4_25 src_reg_4_97)
                         (= src_reg_4_26 src_reg_4_98)
                         (= src_reg_4_27 src_reg_4_99)
                         (= src_reg_4_28 src_reg_4_100)
                         (= src_reg_4_29 src_reg_4_101)
                         (= src_reg_4_30 src_reg_4_102)
                         (= src_reg_4_31 src_reg_4_103)
                         (= src_reg_4_32 src_reg_4_104)
                         (= src_reg_4_33 src_reg_4_105)
                         (= src_reg_4_34 src_reg_4_106)
                         (= src_reg_4_35 src_reg_4_107)
                         (= #x00000001 dst_reg_4_72)
                         (= dst_reg_4_1 dst_reg_4_73)
                         (= or.i256.i_4_46 dst_reg_4_74)
                         (= and.i259.i_4_50 dst_reg_4_75)
                         (= dst_reg_4_4 dst_reg_4_76)
                         (= dst_reg_4_5 dst_reg_4_77)
                         (= dst_reg_4_6 dst_reg_4_78)
                         (= dst_reg_4_7 dst_reg_4_79)
                         (= cond.i318.i_4_66 dst_reg_4_80)
                         (= conv.i320.i_4_68 dst_reg_4_81)
                         (= cond.i318.i_4_66 dst_reg_4_82)
                         (= conv.i320.i_4_68 dst_reg_4_83)
                         (= dst_reg_4_12 dst_reg_4_84)
                         (= dst_reg_4_13 dst_reg_4_85)
                         (= dst_reg_4_14 dst_reg_4_86)
                         (= dst_reg_4_15 dst_reg_4_87)
                         (= dst_reg_4_16 dst_reg_4_88)
                         (= dst_reg_4_17 dst_reg_4_89)))))
      (a!5 (=> (= i27.i286.i_4_60 #b0)
               (and (= dst_reg_4_10 i29.i316.i_4_64)
                    (ite (bvugt i29.i316.i_4_64
                                src_reg1.sroa.57.0.copyload_4_41)
                         (= cmp.i317.i_4_65 #b1)
                         (= cmp.i317.i_4_65 #b0))
                    (ite (= cmp.i317.i_4_65 #b1)
                         (= cond.i318.i_4_66 i29.i316.i_4_64)
                         (= cond.i318.i_4_66 src_reg1.sroa.57.0.copyload_4_41))
                    (= or.i319.i_4_67 (bvor or3.i257.i_4_47 or.i256.i_4_46))
                    (= conv.i320.i_4_68 ((_ extract 31 0) or.i319.i_4_67))
                    (ite (bvsgt cond.i318.i_4_66 conv.i320.i_4_68)
                         (= cmp12.not.i322.i_4_69 #b1)
                         (= cmp12.not.i322.i_4_69 #b0)))))
      (a!6 (=> (= i27.i286.i_4_60 #b1)
               (and (= conv.i.i287.i_4_61 ((_ extract 31 0) or.i256.i_4_46))
                    (= shr5.i.i.i.i.i.i296.i_4_63
                       (bvand and.i259.i_4_50 #xffffffff00000000))))))
(let ((a!2 (=> (and (= i25.i335.i_4_112 #b0) a!1)
               (and (= dst_reg_4_6 i27.i354.i_4_118)
                    (ite (bvugt i27.i354.i_4_118
                                src_reg1.sroa.34.0.copyload_4_40)
                         (= cmp.i355.i_4_119 #b1)
                         (= cmp.i355.i_4_119 #b0))
                    (ite (= cmp.i355.i_4_119 #b1)
                         (= cond.i356.i_4_120 i27.i354.i_4_118)
                         (= cond.i356.i_4_120 src_reg1.sroa.34.0.copyload_4_40))
                    (= dst_reg_4_74 i28.i357.i_4_121)
                    (= or.i358.i_4_122 (bvor i28.i357.i_4_121 i23.i331.i_4_108))
                    (ite (bvsgt cond.i356.i_4_120 or.i358.i_4_122)
                         (= cmp13.not.i360.i_4_123 #b1)
                         (= cmp13.not.i360.i_4_123 #b0))
                    (ite (= cmp13.not.i360.i_4_123 #b1)
                         (= .cond.i361.i_4_125 #x8000000000000000)
                         (= .cond.i361.i_4_125 cond.i356.i_4_120))
                    (ite (= cmp13.not.i360.i_4_123 #b1)
                         (= .or.i.i_4_127 #x7fffffffffffffff)
                         (= .or.i.i_4_127 or.i358.i_4_122))
                    (= dst_reg_4_74 i22.i.i.i363.i_4_128)
                    (= dst_reg_4_80 i27.i.i.i371.i_4_129)
                    (= and.i.i.i372.i_4_131
                       (bvand i23.i331.i_4_108 #x0000000080000000))
                    (= or.i.i.i373.i_4_132
                       (bvor i22.i.i.i363.i_4_128 and.i.i.i372.i_4_131))
                    (= conv.i.i3.i374.i_4_133
                       ((_ extract 31 0) or.i.i.i373.i_4_132))
                    (ite (bvsgt i27.i.i.i371.i_4_129 conv.i.i3.i374.i_4_133)
                         (= cmp.i.i.i375.i_4_134 #b1)
                         (= cmp.i.i.i375.i_4_134 #b0))
                    (ite (= cmp.i.i.i375.i_4_134 #b1)
                         (= cond.i.i.i376.i_4_135 i27.i.i.i371.i_4_129)
                         (= cond.i.i.i376.i_4_135 conv.i.i3.i374.i_4_133))
                    (= dst_reg_4_81 i28.i.i.i378.i_4_136)
                    (= and5.i.i.i379.i_4_138
                       (bvand i23.i331.i_4_108 #x000000007fffffff))
                    (= or6.i.i.i380.i_4_139
                       (bvor i22.i.i.i363.i_4_128 and5.i.i.i379.i_4_138))
                    (= conv7.i.i.i381.i_4_140
                       ((_ extract 31 0) or6.i.i.i380.i_4_139))
                    (ite (bvslt i28.i.i.i378.i_4_136 conv7.i.i.i381.i_4_140)
                         (= cmp9.i.i.i382.i_4_141 #b1)
                         (= cmp9.i.i.i382.i_4_141 #b0))
                    (ite (= cmp9.i.i.i382.i_4_141 #b1)
                         (= cond14.i.i.i383.i_4_142 i28.i.i.i378.i_4_136)
                         (= cond14.i.i.i383.i_4_142 conv7.i.i.i381.i_4_140))
                    (= dst_reg_4_82 i29.i.i.i385.i_4_143)
                    (= conv17.i.i.i386.i_4_144
                       ((_ extract 31 0) i22.i.i.i363.i_4_128))
                    (ite (bvugt i29.i.i.i385.i_4_143 conv17.i.i.i386.i_4_144)
                         (= cmp19.i.i.i387.i_4_145 #b1)
                         (= cmp19.i.i.i387.i_4_145 #b0))
                    (ite (= cmp19.i.i.i387.i_4_145 #b1)
                         (= cond24.i.i.i388.i_4_146 i29.i.i.i385.i_4_143)
                         (= cond24.i.i.i388.i_4_146 conv17.i.i.i386.i_4_144))
                    (= dst_reg_4_83 i30.i.i.i390.i_4_147)
                    (= and.i.i.i.i.i366.i30_4_148
                       (bvor i22.i.i.i363.i_4_128 i23.i331.i_4_108))
                    (= conv29.i.i.i392.i_4_149
                       ((_ extract 31 0) and.i.i.i.i.i366.i30_4_148))
                    (ite (bvult i30.i.i.i390.i_4_147 conv29.i.i.i392.i_4_149)
                         (= cmp31.i.i.i393.i_4_150 #b1)
                         (= cmp31.i.i.i393.i_4_150 #b0))
                    (ite (= cmp31.i.i.i393.i_4_150 #b1)
                         (= cond36.i.i.i394.i_4_151 i30.i.i.i390.i_4_147)
                         (= cond36.i.i.i394.i_4_151 conv29.i.i.i392.i_4_149))
                    (= and.i4.i.i401.i_4_153
                       (bvand i23.i331.i_4_108 #x8000000000000000))
                    (= or.i5.i.i402.i_4_154
                       (bvor i22.i.i.i363.i_4_128 and.i4.i.i401.i_4_153))
                    (ite (bvsgt .cond.i361.i_4_125 or.i5.i.i402.i_4_154)
                         (= cmp.i6.i.i403.i_4_155 #b1)
                         (= cmp.i6.i.i403.i_4_155 #b0))
                    (ite (= cmp.i6.i.i403.i_4_155 #b1)
                         (= cond.i7.i.i404.i_4_156 .cond.i361.i_4_125)
                         (= cond.i7.i.i404.i_4_156 or.i5.i.i402.i_4_154))
                    (= and7.i.i.i407.i_4_158
                       (bvand i23.i331.i_4_108 #x7fffffffffffffff))
                    (= or8.i.i.i408.i_4_159
                       (bvor i22.i.i.i363.i_4_128 and7.i.i.i407.i_4_158))
                    (ite (bvslt .or.i.i_4_127 or8.i.i.i408.i_4_159)
                         (= cmp10.i.i.i409.i_4_160 #b1)
                         (= cmp10.i.i.i409.i_4_160 #b0))
                    (ite (= cmp10.i.i.i409.i_4_160 #b1)
                         (= cond14.i8.i.i410.i_4_161 .or.i.i_4_127)
                         (= cond14.i8.i.i410.i_4_161 or8.i.i.i408.i_4_159))
                    (ite (bvugt cond.i356.i_4_120 i22.i.i.i363.i_4_128)
                         (= cmp19.i9.i.i413.i_4_162 #b1)
                         (= cmp19.i9.i.i413.i_4_162 #b0))
                    (ite (= cmp19.i9.i.i413.i_4_162 #b1)
                         (= cond23.i.i.i414.i_4_163 cond.i356.i_4_120)
                         (= cond23.i.i.i414.i_4_163 i22.i.i.i363.i_4_128))
                    (ite (bvult or.i358.i_4_122 and.i.i.i.i.i366.i30_4_148)
                         (= cmp31.i11.i.i418.i_4_164 #b1)
                         (= cmp31.i11.i.i418.i_4_164 #b0))
                    (ite (= cmp31.i11.i.i418.i_4_164 #b1)
                         (= cond35.i.i.i419.i_4_165 or.i358.i_4_122)
                         (= cond35.i.i.i419.i_4_165 and.i.i.i.i.i366.i30_4_148)))))
      (a!3 (=> (and (= i25.i335.i_4_112 #b1) a!1)
               (and (= dst_reg_4_74 i26.i337.i_4_113)
                    (= conv.i.i.i348.i_4_117
                       ((_ extract 31 0) i26.i337.i_4_113)))))
      (a!7 (and (=> (and (= i25.i335.i_4_112 #b1) a!1)
                    (and (= src_reg_4_90 src_reg_4_184)
                         (= src_reg_4_91 src_reg_4_185)
                         (= src_reg_4_92 src_reg_4_186)
                         (= src_reg_4_93 src_reg_4_187)
                         (= src_reg_4_94 src_reg_4_188)
                         (= src_reg_4_95 src_reg_4_189)
                         (= src_reg_4_96 src_reg_4_190)
                         (= src_reg_4_97 src_reg_4_191)
                         (= src_reg_4_98 src_reg_4_192)
                         (= src_reg_4_99 src_reg_4_193)
                         (= src_reg_4_100 src_reg_4_194)
                         (= src_reg_4_101 src_reg_4_195)
                         (= src_reg_4_102 src_reg_4_196)
                         (= src_reg_4_103 src_reg_4_197)
                         (= src_reg_4_104 src_reg_4_198)
                         (= src_reg_4_105 src_reg_4_199)
                         (= src_reg_4_106 src_reg_4_200)
                         (= src_reg_4_107 src_reg_4_201)
                         (= dst_reg_4_72 dst_reg_4_166)
                         (= dst_reg_4_73 dst_reg_4_167)
                         (= i26.i337.i_4_113 dst_reg_4_168)
                         (= #x0000000000000000 dst_reg_4_169)
                         (= i26.i337.i_4_113 dst_reg_4_170)
                         (= i26.i337.i_4_113 dst_reg_4_171)
                         (= i26.i337.i_4_113 dst_reg_4_172)
                         (= i26.i337.i_4_113 dst_reg_4_173)
                         (= conv.i.i.i348.i_4_117 dst_reg_4_174)
                         (= conv.i.i.i348.i_4_117 dst_reg_4_175)
                         (= conv.i.i.i348.i_4_117 dst_reg_4_176)
                         (= conv.i.i.i348.i_4_117 dst_reg_4_177)
                         (= #x00000000 dst_reg_4_178)
                         (= #x00000000 dst_reg_4_179)
                         (= dst_reg_4_86 dst_reg_4_180)
                         (= dst_reg_4_87 dst_reg_4_181)
                         (= dst_reg_4_88 dst_reg_4_182)
                         (= dst_reg_4_89 dst_reg_4_183)))
                (=> (and (= i25.i335.i_4_112 #b0) a!1)
                    (and (= src_reg_4_90 src_reg_4_184)
                         (= src_reg_4_91 src_reg_4_185)
                         (= src_reg_4_92 src_reg_4_186)
                         (= src_reg_4_93 src_reg_4_187)
                         (= src_reg_4_94 src_reg_4_188)
                         (= src_reg_4_95 src_reg_4_189)
                         (= src_reg_4_96 src_reg_4_190)
                         (= src_reg_4_97 src_reg_4_191)
                         (= src_reg_4_98 src_reg_4_192)
                         (= src_reg_4_99 src_reg_4_193)
                         (= src_reg_4_100 src_reg_4_194)
                         (= src_reg_4_101 src_reg_4_195)
                         (= src_reg_4_102 src_reg_4_196)
                         (= src_reg_4_103 src_reg_4_197)
                         (= src_reg_4_104 src_reg_4_198)
                         (= src_reg_4_105 src_reg_4_199)
                         (= src_reg_4_106 src_reg_4_200)
                         (= src_reg_4_107 src_reg_4_201)
                         (= dst_reg_4_72 dst_reg_4_166)
                         (= dst_reg_4_73 dst_reg_4_167)
                         (= dst_reg_4_74 dst_reg_4_168)
                         (= dst_reg_4_75 dst_reg_4_169)
                         (= cond.i7.i.i404.i_4_156 dst_reg_4_170)
                         (= cond14.i8.i.i410.i_4_161 dst_reg_4_171)
                         (= cond23.i.i.i414.i_4_163 dst_reg_4_172)
                         (= cond35.i.i.i419.i_4_165 dst_reg_4_173)
                         (= cond.i.i.i376.i_4_135 dst_reg_4_174)
                         (= cond14.i.i.i383.i_4_142 dst_reg_4_175)
                         (= cond24.i.i.i388.i_4_146 dst_reg_4_176)
                         (= cond36.i.i.i394.i_4_151 dst_reg_4_177)
                         (= dst_reg_4_84 dst_reg_4_178)
                         (= dst_reg_4_85 dst_reg_4_179)
                         (= dst_reg_4_86 dst_reg_4_180)
                         (= dst_reg_4_87 dst_reg_4_181)
                         (= dst_reg_4_88 dst_reg_4_182)
                         (= dst_reg_4_89 dst_reg_4_183)))
                (= dst_reg_4_166 dst_reg_4_202)
                (= dst_reg_4_167 dst_reg_4_203)
                (= dst_reg_4_168 dst_reg_4_204)
                (= dst_reg_4_169 dst_reg_4_205)
                (= dst_reg_4_170 dst_reg_4_206)
                (= dst_reg_4_171 dst_reg_4_207)
                (= dst_reg_4_172 dst_reg_4_208)
                (= dst_reg_4_173 dst_reg_4_209)
                (= dst_reg_4_174 dst_reg_4_210)
                (= dst_reg_4_175 dst_reg_4_211)
                (= dst_reg_4_176 dst_reg_4_212)
                (= dst_reg_4_177 dst_reg_4_213)
                (= dst_reg_4_178 dst_reg_4_214)
                (= dst_reg_4_179 dst_reg_4_215)
                (= dst_reg_4_180 dst_reg_4_216)
                (= dst_reg_4_181 dst_reg_4_217)
                (= dst_reg_4_182 dst_reg_4_218)
                (= dst_reg_4_183 dst_reg_4_219)
                (= src_reg_4_184 src_reg_4_220)
                (= src_reg_4_185 src_reg_4_221)
                (= src_reg_4_186 src_reg_4_222)
                (= src_reg_4_187 src_reg_4_223)
                (= src_reg_4_188 src_reg_4_224)
                (= src_reg_4_189 src_reg_4_225)
                (= src_reg_4_190 src_reg_4_226)
                (= src_reg_4_191 src_reg_4_227)
                (= src_reg_4_192 src_reg_4_228)
                (= src_reg_4_193 src_reg_4_229)
                (= src_reg_4_194 src_reg_4_230)
                (= src_reg_4_195 src_reg_4_231)
                (= src_reg_4_196 src_reg_4_232)
                (= src_reg_4_197 src_reg_4_233)
                (= src_reg_4_198 src_reg_4_234)
                (= src_reg_4_199 src_reg_4_235)
                (= src_reg_4_200 src_reg_4_236)
                (= src_reg_4_201 src_reg_4_237))))
(let ((a!8 (=> (or (and (= i25.i335.i_4_112 #b0) a!1)
                   (and (= i25.i335.i_4_112 #b1) a!1))
               a!7)))
  (and a!2
       a!3
       (=> a!1 a!4)
       a!5
       a!6
       a!8
       (= dst_reg_4_0 dst_reg_4_0)
       (= dst_reg_4_1 dst_reg_4_1)
       (= dst_reg_4_2 dst_reg_4_2)
       (= dst_reg_4_3 dst_reg_4_3)
       (= dst_reg_4_4 dst_reg_4_4)
       (= dst_reg_4_5 dst_reg_4_5)
       (= dst_reg_4_6 dst_reg_4_6)
       (= dst_reg_4_7 dst_reg_4_7)
       (= dst_reg_4_8 dst_reg_4_8)
       (= dst_reg_4_9 dst_reg_4_9)
       (= dst_reg_4_10 dst_reg_4_10)
       (= dst_reg_4_11 dst_reg_4_11)
       (= dst_reg_4_12 dst_reg_4_12)
       (= dst_reg_4_13 dst_reg_4_13)
       (= dst_reg_4_14 dst_reg_4_14)
       (= dst_reg_4_15 dst_reg_4_15)
       (= dst_reg_4_16 dst_reg_4_16)
       (= dst_reg_4_17 dst_reg_4_17)
       (= src_reg_4_18 src_reg_4_18)
       (= src_reg_4_19 src_reg_4_19)
       (= src_reg_4_20 src_reg_4_20)
       (= src_reg_4_21 src_reg_4_21)
       (= src_reg_4_22 src_reg_4_22)
       (= src_reg_4_23 src_reg_4_23)
       (= src_reg_4_24 src_reg_4_24)
       (= src_reg_4_25 src_reg_4_25)
       (= src_reg_4_26 src_reg_4_26)
       (= src_reg_4_27 src_reg_4_27)
       (= src_reg_4_28 src_reg_4_28)
       (= src_reg_4_29 src_reg_4_29)
       (= src_reg_4_30 src_reg_4_30)
       (= src_reg_4_31 src_reg_4_31)
       (= src_reg_4_32 src_reg_4_32)
       (= src_reg_4_33 src_reg_4_33)
       (= src_reg_4_34 src_reg_4_34)
       (= src_reg_4_35 src_reg_4_35)
       (= src_reg_4_20 src_reg1.sroa.3.0.copyload_4_38)
       (= src_reg_4_21 src_reg1.sroa.13.0.copyload_4_39)
       (= src_reg_4_24 src_reg1.sroa.34.0.copyload_4_40)
       (= src_reg_4_28 src_reg1.sroa.57.0.copyload_4_41)
       (ite (= src_reg1.sroa.13.0.copyload_4_39 #x0000000000000000)
            (= tobool.not.i1.i.i_4_43 #b1)
            (= tobool.not.i1.i.i_4_43 #b0))
       (= dst_reg_4_2 i93.i_4_44)
       (= dst_reg_4_3 i95.i_4_45)
       (= or.i256.i_4_46 (bvor i93.i_4_44 src_reg1.sroa.3.0.copyload_4_38))
       (= or3.i257.i_4_47 (bvor i95.i_4_45 src_reg1.sroa.13.0.copyload_4_39))
       (= neg.i258.i_4_49 (bvxor or.i256.i_4_46 #xffffffffffffffff))
       (= and.i259.i_4_50 (bvand or3.i257.i_4_47 neg.i258.i_4_49))
       (= and6.i.i.i.i267.i_4_52
          (bvand src_reg1.sroa.13.0.copyload_4_39 #x00000000ffffffff))
       (ite (= and6.i.i.i.i267.i_4_52 #x0000000000000000)
            (= tobool.not.i.i270.i_4_54 #b1)
            (= tobool.not.i.i270.i_4_54 #b0))
       (= and6.i.i.i2.i276.i_4_56 (bvand and.i259.i_4_50 #x00000000ffffffff))
       (ite (= and6.i.i.i2.i276.i_4_56 #x0000000000000000)
            (= tobool.not.i5.i279.i_4_58 #b1)
            (= tobool.not.i5.i279.i_4_58 #b0))
       (ite (= tobool.not.i.i270.i_4_54 #b1)
            (= i27.i286.i_4_60 tobool.not.i5.i279.i_4_58)
            (= i27.i286.i_4_60 #b0)))))))

;{"dst_reg":["dst_reg_4_0","dst_reg_4_1",[""],["dst_reg_4_2","dst_reg_4_3"],"dst_reg_4_4","dst_reg_4_5","dst_reg_4_6","dst_reg_4_7","dst_reg_4_8","dst_reg_4_9","dst_reg_4_10","dst_reg_4_11","dst_reg_4_12","dst_reg_4_13","","","dst_reg_4_14","dst_reg_4_15","dst_reg_4_16"],"src_reg":["src_reg_4_18","src_reg_4_19",[""],["src_reg_4_20","src_reg_4_21"],"src_reg_4_22","src_reg_4_23","src_reg_4_24","src_reg_4_25","src_reg_4_26","src_reg_4_27","src_reg_4_28","src_reg_4_29","src_reg_4_30","src_reg_4_31","","","src_reg_4_32","src_reg_4_33","src_reg_4_34"]}
;{"dst_reg":["dst_reg_4_202","dst_reg_4_203",[""],["dst_reg_4_204","dst_reg_4_205"],"dst_reg_4_206","dst_reg_4_207","dst_reg_4_208","dst_reg_4_209","dst_reg_4_210","dst_reg_4_211","dst_reg_4_212","dst_reg_4_213","dst_reg_4_214","dst_reg_4_215","","","dst_reg_4_216","dst_reg_4_217","dst_reg_4_218"],"src_reg":["src_reg_4_220","src_reg_4_221",[""],["src_reg_4_222","src_reg_4_223"],"src_reg_4_224","src_reg_4_225","src_reg_4_226","src_reg_4_227","src_reg_4_228","src_reg_4_229","src_reg_4_230","src_reg_4_231","src_reg_4_232","src_reg_4_233","","","src_reg_4_234","src_reg_4_235","src_reg_4_236"]}
